0001 6
0002 11
0003 6
0004 6
0005 21
0006 8
0007 8
0008 13
0009 13
0010 13
0011 15
0012 10
0013 14
0014 5
0015 9
0016 6
0017 9
0018 1
0019 1
0020 1
0021 10
0022 1
0023 2
0024 2
0025 1
0026 3
0027 3
0028 1
0029 17
0030 1
0031 19
0032 20
0033 11
0034 14
0035 22
0036 3
0037 4
0038 21
0039 21
0040 20
0041 20
0042 16
0043 7
0044 22
0045 22
0046 5
0047 11
0048 3
0049 10
0050 22
0051 21
0052 20
0053 21
0054 20
0055 1
0056 24
0057 5
0058 9
0059 12
0060 20
0061 16
0062 16
0063 5
0064 16
0065 16
0066 17
0067 16
0068 16
0069 16
0070 19
0071 19
0072 12
0073 12
0074 14
0075 10
0076 15
0077 22
0078 24
0079 24
0080 24
0081 24
0082 24
0083 24
0084 24
0085 24
0086 24
0087 24
0088 24
0089 23
0090 23
0091 24
0092 10
0093 10
0094 17
0095 21
0096 13
0097 10
0098 21
0099 1
0100 18
0101 18
0102 18
0103 8
0104 19
0105 2
0106 13
0107 11
0108 14
0109 14
0110 3
0111 6
0112 19
0113 14
0114 12
0115 5
0116 7
0117 7
0118 7
0119 6
0120 19
0121 20
0122 10
0123 19
0124 19
0125 8
0126 9
0127 7
0128 7
0129 10
0130 16
0131 9
0132 7
0133 11
0134 21
0135 21
0136 4
0137 3
0138 4
0139 5
0140 11
0141 1
0142 4
0143 4
0144 9
0145 14
0146 8
0147 14
0148 18
0149 17
0150 12
0151 8
0152 19
0153 15
0154 15
0155 17
0156 17
0157 17
0158 4
0159 6
0160 7
0161 18
0162 24
0163 22
0164 19
0165 17
0166 18
0167 22
0168 11
0169 12
0170 11
0171 12
0172 13
0173 16
0174 7
0175 20
0176 6
0177 17
0178 11
0179 12
0180 18
0181 7
0182 18
0183 10
0184 10
0185 10
0186 10
0187 19
0188 6
0189 10
0190 12